
Gurobi 7.5.2 (linux64, Python) logging started Wed Dec  6 16:17:00 2017


Gurobi 7.5.2 (linux64, Python) logging started Thu Dec  7 12:04:15 2017


Gurobi 7.5.2 (linux64, Python) logging started Sun Dec 10 15:13:24 2017

